qe/outputs/qe/qe_queries_wdomain/T=5,eliminate=[I_0,I_1,I_2,I_3,I_4,L_3,L_4,C,B,lhs=Q_4].smt2
; benchmark generated from python API
(set-info :status unknown)
(declare-fun S_1 () Real)
(declare-fun S_2 () Real)
(declare-fun L_2 () Real)
(declare-fun A_2 () Real)
(declare-fun S_3 () Real)
(declare-fun A_3 () Real)
(declare-fun S_4 () Real)
(declare-fun A_1 () Real)
(declare-fun L_1 () Real)
(declare-fun A_4 () Real)
(declare-fun Q_4 () Real)
(declare-fun S_0 () Real)
(declare-fun L_0 () Real)
(declare-fun A_0 () Real)
(assert
 (let (($x1495 (>= Q_4 0.0)))
 (let ((?x822 (* (- 1.0) A_3)))
 (let ((?x804 (* (- 1.0) A_1)))
 (let ((?x1454 (* (- 1.0) S_1)))
 (let ((?x792 (* (- 1.0) L_0)))
 (let ((?x1730 (* 2.0 A_0)))
 (let ((?x759 (* (- 1.0) Q_4)))
 (let (($x22836 (<= (+ ?x759 A_4 ?x1730 ?x792 ?x1454 ?x804 ?x822) 0.0)))
 (let ((?x1003 (* (- 1.0) A_0)))
 (let ((?x1364 (* (- 2.0) S_4)))
 (let ((?x1399 (* (- 3.0) L_2)))
 (let ((?x1367 (* 3.0 A_2)))
 (let (($x18415 (<= (+ ?x1367 ?x1399 ?x1364 L_0 ?x1003) 0.0)))
 (let ((?x5041 (* (- 4.0) S_4)))
 (let ((?x2268 (* 3.0 A_4)))
 (let ((?x1437 (* (- 3.0) Q_4)))
 (let (($x4808 (<= (+ ?x1437 ?x2268 A_0 ?x792 ?x5041 ?x1399) 0.0)))
 (let ((?x4118 (* (- (/ 1.0 2.0)) S_4)))
 (let ((?x4456 (* (/ 1.0 2.0) A_1)))
 (let ((?x4618 (* (- (/ 3.0 2.0)) L_1)))
 (let (($x4620 (<= (+ ?x4618 ?x759 A_4 ?x4456 ?x4118 ?x1454 A_0 ?x822) 0.0)))
 (let ((?x1463 (* (- 2.0) L_2)))
 (let ((?x2722 (* (- 3.0) S_4)))
 (let ((?x1600 (* 2.0 A_4)))
 (let ((?x1740 (* (- 2.0) Q_4)))
 (let ((?x801 (* (- 1.0) L_1)))
 (let (($x3039 (<= (+ ?x801 ?x1740 ?x1600 A_1 ?x2722 ?x1463) 0.0)))
 (let (($x2476 (<= (+ A_3 (* (- 1.0) S_4) (* (- 1.0) L_2)) 0.0)))
 (let (($x1456 (<= (+ ?x759 A_0 ?x1454 ?x801) 0.0)))
 (let ((?x1496 (* (- 2.0) A_3)))
 (let ((?x1484 (* (- 2.0) L_1)))
 (let ((?x1623 (* (- 2.0) S_1)))
 (let ((?x1440 (* (- 1.0) S_3)))
 (let ((?x1607 (* 3.0 A_0)))
 (let (($x9944 (<= (+ A_2 (* (- 1.0) L_2) ?x1440) 0.0)))
 (let (($x5115 (<= (+ ?x759 A_4 A_0 ?x792 (* (- 2.0) S_3) (* (- 1.0) L_2)) 0.0)))
 (let (($x3319 (<= (+ ?x1484 (* 2.0 A_1) ?x1440 L_0 ?x1003) 0.0)))
 (let (($x277849 (or $x1456 $x3319 $x5115 $x9944 (<= (+ ?x1740 ?x1600 ?x1607 ?x792 ?x1440 ?x1623 ?x1484 ?x1496) 0.0))))
 (let ((?x1472 (* (- 3.0) A_0)))
 (let ((?x1473 (* 3.0 L_0)))
 (let ((?x1788 (* 4.0 A_1)))
 (let ((?x854 (* (- 1.0) A_4)))
 (let ((?x1787 (* (- 4.0) L_1)))
 (let (($x3009 (not (<= (+ ?x1787 Q_4 ?x854 ?x1788 L_2 ?x1473 ?x1472) 0.0))))
 (let ((?x810 (* (- 1.0) L_2)))
 (let ((?x2775 (* (- 3.0) S_3)))
 (let ((?x1474 (* 2.0 A_1)))
 (let (($x2997 (<= (+ ?x1484 ?x759 A_4 ?x1474 ?x2775 ?x810) 0.0)))
 (let (($x119953 (or $x1456 $x2997 $x3009 (<= (+ ?x1484 ?x759 A_4 A_1 ?x1440 ?x1454 A_0 ?x822) 0.0) $x9944 $x22836)))
 (let (($x1486 (<= (+ ?x759 ?x1003 L_0 ?x1484 L_2 ?x1474 (* (- 1.0) A_2)) 0.0)))
 (let (($x1573 (<= Q_4 0.0)))
 (let (($x1100 (not $x1573)))
 (let (($x689 (= ?x801 ?x792)))
 (let (($x579 (not (<= 0.0 (+ L_1 S_0 ?x1003)))))
 (let (($x126537 (or $x579 $x689 $x1100 (not (<= (+ ?x759 ?x1003 L_0 ?x801 A_1) 5.0)))))
 (let (($x116038 (or $x579 $x689 (not (<= (+ A_2 ?x810 ?x1440 ?x801 A_1 L_0 ?x1003) 0.0)))))
 (let ((?x87510 (* (/ 1.0 3.0) A_3)))
 (let ((?x24675 (* (/ 4.0 3.0) L_1)))
 (let ((?x87525 (* (/ 1.0 3.0) S_0)))
 (let ((?x83215 (* (- (/ 1.0 3.0)) A_4)))
 (let ((?x7873 (* (- (/ 2.0 3.0)) L_0)))
 (let ((?x8100 (* (/ 1.0 3.0) A_0)))
 (let ((?x22178 (* (/ 1.0 3.0) S_4)))
 (let ((?x72185 (* (/ 1.0 2.0) A_3)))
 (let ((?x16069 (* (- (/ 1.0 2.0)) A_0)))
 (let ((?x19900 (* (- (/ 1.0 2.0)) A_4)))
 (let ((?x4503 (* (/ 1.0 2.0) S_4)))
 (let (($x1811 (<= (+ Q_4 A_0 ?x792 (* 2.0 L_1) ?x810 (* (- 2.0) A_1) A_2) 0.0)))
 (let (($x270798 (or $x689 $x1811 $x9944 (<= (+ ?x4456 ?x4503 ?x19900 ?x1440 (* (/ 1.0 2.0) S_0) ?x16069 ?x72185) 0.0) (<= (+ ?x22178 ?x8100 ?x7873 ?x83215 ?x87525 ?x24675 ?x804 ?x87510) 0.0))))
 (let ((?x7698 (* (- (/ 1.0 3.0)) L_0)))
 (let ((?x8016 (* (- (/ 1.0 3.0)) A_0)))
 (let ((?x87375 (+ (* (/ 2.0 3.0) S_4) ?x8016 ?x7698 (* (- (/ 2.0 3.0)) A_4) ?x1440 (* (/ 2.0 3.0) S_0) (* (/ 2.0 3.0) L_1) (* (/ 2.0 3.0) A_3))))
 (let (($x115902 (or $x689 $x3319 $x9944 (<= ?x87375 0.0) (<= (+ S_4 A_0 ?x792 ?x854 ?x1440 L_1 ?x804 A_3) 0.0))))
 (let ((?x4567 (* (- (/ 1.0 2.0)) A_1)))
 (let ((?x4501 (* (/ 1.0 2.0) L_1)))
 (let ((?x1630 (* (- 1.0) S_2)))
 (let (($x2163 (<= (+ ?x801 A_1 ?x1630) 0.0)))
 (let (($x265580 (or $x689 $x2163 (<= (+ ?x22178 ?x8100 ?x7873 ?x83215 ?x1630 ?x87525 (* (/ 1.0 3.0) L_1) ?x87510) 0.0) (<= (+ ?x4503 A_0 ?x792 ?x19900 ?x1630 ?x4501 ?x4567 ?x72185) 0.0))))
 (let ((?x813 (* (- 1.0) A_2)))
 (let ((?x1771 (* (- 3.0) L_1)))
 (let ((?x2995 (* (- 3.0) S_1)))
 (let ((?x7571 (* 4.0 A_0)))
 (let (($x5154 (<= (+ ?x759 A_4 ?x1607 ?x792 ?x1623 L_2 ?x1484 (* (- 2.0) A_2)) 0.0)))
 (let ((?x1772 (* (- 2.0) A_0)))
 (let ((?x1462 (* 2.0 L_0)))
 (let ((?x1530 (* 3.0 A_1)))
 (let (($x1803 (<= (+ ?x801 L_2) 0.0)))
 (let (($x127692 (or $x1456 $x1803 (<= (+ ?x1771 Q_4 ?x854 ?x1530 ?x1462 L_2 ?x1772 ?x813 A_3) 0.0) $x5154 (<= (+ ?x1740 ?x1600 ?x7571 ?x792 ?x2995 ?x1771 L_2 ?x813 ?x1496) 0.0))))
 (let (($x104115 (not (<= 0.0 (+ ?x759 A_4 A_2 ?x810 (* (- 1.0) S_4) ?x822)))))
 (let (($x24237 (<= (+ A_0 ?x792 ?x810 (* 2.0 L_1) (* (- 2.0) A_1) A_2) 0.0)))
 (let (($x24382 (not $x24237)))
 (let (($x2129 (not (<= (+ Q_4 ?x854 A_3 ?x801 A_1 L_0 ?x1003) 0.0))))
 (let (($x98309 (<= 0.0 (+ ?x801 ?x759 A_4 A_1 L_2 ?x813 ?x822))))
 (let (($x98310 (not $x98309)))
 (let (($x2514 (<= (+ ?x759 A_4 ?x822 A_0 ?x792 L_1 ?x804) 0.0)))
 (let (($x119974 (or $x1456 $x1803 (<= (+ ?x1771 ?x759 A_4 A_1 ?x1623 L_2 ?x1730 ?x813 ?x822) 0.0) $x22836 (<= (+ A_3 ?x1484 A_1 ?x1454 L_2 A_0 (* (- 2.0) A_2)) 0.0))))
 (let ((?x1446 (* (- 3.0) A_2)))
 (let ((?x1426 (* 2.0 L_2)))
 (let ((?x3004 (* (- 5.0) L_1)))
 (let (($x277248 (or $x1456 $x1803 (<= (+ ?x3004 ?x759 A_4 ?x1474 ?x2995 ?x1426 ?x1607 ?x1446) 0.0) (<= (+ L_1 ?x759 A_4 ?x804 ?x810 ?x1367 (* (- 3.0) A_3)) 0.0) $x5154)))
 (let (($x25044 (<= (+ ?x801 A_1 (* (- 1.0) S_4) A_4 L_0 ?x810 ?x1003 A_2 ?x822) 0.0)))
 (let (($x24993 (not $x25044)))
 (let (($x117718 (or $x1803 (<= (+ ?x801 A_1 S_4 ?x854 ?x1440 L_2 ?x813 A_3) 0.0) $x24993)))
 (let (($x7530 (<= (+ ?x1740 ?x1600 A_0 ?x792 ?x2775 ?x1463 (* 2.0 A_2) ?x1496) 0.0)))
 (let (($x1442 (<= (+ ?x759 ?x1440 ?x810 A_2) 0.0)))
 (let (($x1494 (<= (+ ?x759 A_0 ?x792 (* 2.0 L_1) ?x810 (* (- 2.0) A_1) A_2) 0.0)))
 (let (($x1339 (not $x1494)))
 (let ((?x1536 (* 3.0 L_1)))
 (let ((?x2778 (* 3.0 S_0)))
 (let ((?x15526 (* (- 4.0) A_0)))
 (let (($x56851 (<= (+ ?x1364 ?x15526 L_0 ?x2778 ?x1399 ?x1536 ?x1367) 0.0)))
 (let (($x4871 (<= (+ L_1 ?x792) 0.0)))
 (let (($x277923 (or $x2476 $x4871 (<= (+ (* (/ 3.0 2.0) L_1) ?x4567 ?x4118 S_0 ?x810 ?x1003 A_2) 0.0) (not $x56851) (<= 0.0 (+ (* (- (/ 1.0 2.0)) L_1) ?x4456 ?x4503 L_2 ?x813)))))
 (let ((?x1477 (* 2.0 A_3)))
 (let ((?x1445 (* 3.0 L_2)))
 (let ((?x1471 (* (- 2.0) A_4)))
 (let ((?x1646 (* 2.0 S_4)))
 (let (($x24983 (<= (+ ?x1484 A_1 S_4 ?x854 ?x1454 ?x1426 A_0 (* (- 2.0) A_2) A_3) 0.0)))
 (let (($x269502 (or $x1803 $x24983 (<= (+ ?x1646 ?x1730 ?x792 ?x1471 ?x1454 ?x801 ?x1445 ?x1446 ?x1477) 0.0))))
 (let (($x42725 (<= (+ Q_4 ?x854 ?x813 L_2 S_4 A_0 ?x792 L_1 ?x804 A_3) 0.0)))
 (let (($x274658 (or $x689 $x2163 $x42725 (<= (+ ?x813 L_2 S_4 ?x854 ?x1630 ?x792 S_0 L_1 A_3) 0.0))))
 (let (($x71005 (<= (+ ?x1646 A_0 ?x792 ?x1471 ?x1440 ?x1426 (* (- 2.0) A_2) ?x1477) 0.0)))
 (let ((?x1492 (* (- 2.0) A_1)))
 (let ((?x1491 (* 2.0 L_1)))
 (let ((?x1360 (* 2.0 Q_4)))
 (let (($x20251 (<= (+ ?x1360 ?x1471 A_0 ?x792 S_4 ?x1491 ?x1492 ?x1477) 0.0)))
 (let ((?x16066 (* (/ 1.0 4.0) S_4)))
 (let ((?x18668 (+ Q_4 ?x854 (* (- (/ 5.0 4.0)) A_0) (* (/ 1.0 4.0) L_0) ?x16066 S_0 L_1 A_3)))
 (let (($x18936 (<= ?x18668 0.0)))
 (let (($x18459 (<= (+ (* (/ 1.0 2.0) A_0) (* (- (/ 1.0 2.0)) L_0) (* (/ 1.0 2.0) S_2) L_1 ?x804) 0.0)))
 (let (($x276693 (or $x689 $x1573 (<= (+ ?x1491 Q_4 ?x854 ?x804 S_2 S_0 ?x1003 A_3) 0.0) $x18459)))
 (let ((?x1327 (* (- 2.0) A_2)))
 (let ((?x1449 (* (- 2.0) S_2)))
 (let ((?x1615 (* (- 2.0) L_0)))
 (let (($x277022 (or $x1803 $x2163 (<= (+ ?x1646 ?x1730 ?x1615 ?x1471 ?x1449 ?x1426 ?x1327 ?x1477) 0.0))))
 (let (($x71359 (<= (+ (* (/ 4.0 3.0) A_0) ?x7698 (* (/ 2.0 3.0) S_3) ?x1454 ?x801 L_2 ?x813) 0.0)))
 (let (($x271530 (or $x1803 (<= (+ ?x4618 ?x4456 (* (/ 1.0 2.0) S_3) ?x1454 L_2 A_0 ?x813) 0.0) $x71359)))
 (let (($x16447 (<= (+ ?x759 ?x16069 (* (- (/ 1.0 2.0)) S_3) (* (/ 1.0 2.0) L_0) ?x801 A_1) 0.0)))
 (let (($x2103 (<= (+ ?x759 A_4 ?x822 ?x801 A_1 ?x1440) 0.0)))
 (let (($x19628 (<= (+ ?x1360 ?x1471 ?x813 L_2 S_4 ?x1772 (* 2.0 S_0) ?x1491 ?x1477) 0.0)))
 (let (($x53286 (<= (+ (* (- 1.0) S_4) A_0 ?x792 ?x1536 ?x1399 (* (- 3.0) A_1) ?x1367) 0.0)))
 (let (($x273568 (or $x1803 $x24993 (not (<= 0.0 (+ ?x801 A_1 S_4 ?x854 ?x1426 ?x1327 A_3))))))
 (let (($x96266 (<= (+ L_1 Q_4 ?x854 S_0 ?x1003 A_3) (- 5.0))))
 (let (($x121332 (or $x689 $x1573 $x96266 (<= (+ Q_4 ?x854 A_0 ?x792 L_1 ?x804 A_3) (- 10.0)))))
 (let (($x278373 (or $x1100 $x1803 (not (<= (+ ?x1484 Q_4 ?x1474 L_0 L_2 ?x1003 ?x813) 0.0)) (not (<= (+ L_1 ?x759 ?x804 ?x810 A_2) 5.0)))))
 (let (($x16098 (<= (+ (* (/ 3.0 4.0) A_0) (* (- (/ 3.0 4.0)) L_0) ?x16066 L_1 ?x804) 0.0)))
 (let ((?x2207 (* 3.0 A_3)))
 (let ((?x2203 (* (- 3.0) A_4)))
 (let ((?x1443 (* 3.0 Q_4)))
 (let ((?x1731 (* 4.0 L_1)))
 (let (($x124453 (or $x689 $x1573 (<= (+ ?x1731 ?x1443 ?x2203 ?x804 S_4 ?x2778 ?x1472 ?x2207) 0.0) $x16098)))
 (let (($x20206 (<= (+ Q_4 ?x854 ?x1003 L_0 (* 2.0 S_1) L_1 ?x804 A_3) 0.0)))
 (let (($x279602 (or $x689 $x1573 (<= (+ Q_4 ?x854 ?x1772 L_0 S_1 S_0 L_1 A_3) 0.0) $x20206)))
 (let ((?x1773 (* (- 3.0) A_1)))
 (let ((?x1444 (* 2.0 S_3)))
 (let (($x20209 (<= (+ ?x1443 ?x2203 A_0 ?x792 ?x1444 ?x1536 ?x1773 ?x2207) 0.0)))
 (let ((?x7967 (* (/ 1.0 3.0) S_3)))
 (let ((?x8108 (* (/ 1.0 3.0) L_0)))
 (let (($x8140 (<= (+ Q_4 ?x854 (* (- (/ 4.0 3.0)) A_0) ?x8108 ?x7967 S_0 L_1 A_3) 0.0)))
 (let (($x10908 (<= (+ Q_4 ?x854 ?x813 L_2 S_3 ?x1003 S_0 L_1 A_3) 0.0)))
 (let (($x42694 (<= (+ Q_4 ?x854 ?x1327 ?x1426 ?x1444 A_0 ?x792 L_1 ?x804 A_3) 0.0)))
 (let (($x35121 (<= (+ ?x759 A_4 A_2 ?x810 (* (- 1.0) S_4) A_0 ?x1454 ?x801 ?x822) 0.0)))
 (let (($x15510 (<= (+ ?x759 A_4 A_2 ?x810 ?x1364 ?x801) 0.0)))
 (let ((?x5163 (+ ?x759 A_4 A_0 ?x792 L_2 ?x1327)))
 (let (($x5164 (<= ?x5163 0.0)))
 (let (($x21612 (<= (+ ?x759 A_4 ?x1730 ?x792 ?x1630 ?x1454 ?x801 ?x822) 0.0)))
 (let (($x15534 (<= (+ ?x759 A_4 ?x813 L_2 ?x1730 ?x1449 ?x1615 ?x801) 0.0)))
 (let (($x39227 (<= (+ ?x759 A_2 ?x810 (* (- 1.0) S_4) ?x1003 L_0 ?x801 A_1) 0.0)))
 (let ((?x1464 (* 2.0 A_2)))
 (let (($x35160 (<= (+ ?x759 A_4 ?x1464 ?x1463 ?x1364 ?x1003 L_0 ?x801 A_1 ?x822) 0.0)))
 (let (($x20252 (<= (+ ?x1437 ?x2268 ?x1003 L_0 ?x1364 ?x1771 ?x1530 (* (- 3.0) A_3)) 0.0)))
 (let (($x272618 (or (<= (+ ?x1437 ?x1772 ?x1462 (* (- 1.0) S_4) ?x1771 ?x1530) 0.0) $x2476 $x4808 $x15510 $x20252 $x35160 $x39227)))
 (let (($x4314 (<= (+ ?x759 A_4 ?x1607 (* (- 3.0) L_0) (* (- 4.0) S_2) ?x810) 0.0)))
 (let (($x22773 (<= (+ ?x1437 ?x2268 ?x7571 ?x792 (* (- 1.0) S_4) ?x2995 ?x1771 (* (- 3.0) A_3)) 0.0)))
 (let (($x17449 (<= (+ ?x1484 ?x1474 L_0 L_2 ?x1003 ?x813) 0.0)))
 (let (($x113128 (or $x689 $x2163 (<= (+ A_2 ?x810 A_0 ?x1630 ?x792 L_1 ?x804) 0.0) (<= (+ ?x792 ?x1449 S_0 ?x810 L_1 A_2) 0.0))))
 (let (($x20231 (<= (+ ?x759 A_4 A_0 ?x792 ?x1449 ?x801 A_1 ?x822) 0.0)))
 (let (($x2218 (<= (+ ?x759 A_4 ?x822 ?x801 A_1 L_2 ?x813) 0.0)))
 (let (($x1777 (<= (+ ?x759 ?x1630 ?x801 A_1) 0.0)))
 (let (($x268407 (or $x2476 (<= (+ ?x1003 L_0 (* 2.0 S_1) L_2 ?x813) 0.0) (<= (+ A_2 ?x810 (* (- 1.0) S_4) ?x1003 L_0 S_1) 0.0))))
 (let ((?x8149 (* (/ 2.0 3.0) S_3)))
 (let (($x71394 (<= (+ (* (- (/ 2.0 3.0)) A_0) (* (/ 2.0 3.0) L_0) ?x8149 ?x1484 ?x1426 ?x1474 ?x1327) 0.0)))
 (let ((?x16027 (* (- (/ 1.0 2.0)) L_0)))
 (let ((?x11384 (* (- (/ 1.0 2.0)) S_3)))
 (let ((?x16042 (* (/ 1.0 2.0) A_0)))
 (let (($x74778 (or (<= (+ ?x822 S_4 A_1 ?x1440) 0.0) $x9944 (<= (+ ?x822 S_4 ?x16042 ?x11384 ?x16027 L_1) 0.0))))
 (let ((?x18438 (* (/ 1.0 2.0) S_2)))
 (let ((?x16070 (* (/ 1.0 2.0) L_0)))
 (let (($x18440 (<= (+ Q_4 ?x854 (* (- (/ 3.0 2.0)) A_0) ?x16070 ?x18438 S_0 L_1 A_3) 0.0)))
 (let (($x2182 (<= (+ Q_4 ?x854 A_3 L_1 ?x804 S_2) 0.0)))
 (let (($x4626 (<= (+ ?x4618 (* (/ 3.0 2.0) A_1) ?x4118 L_0 ?x1003) 0.0)))
 (let (($x23905 (<= (+ L_1 ?x1440 S_0 ?x810 ?x1003 A_2) 0.0)))
 (let ((?x2267 (* (- 4.0) A_3)))
 (let ((?x5236 (* (- 4.0) S_1)))
 (let ((?x14314 (* 5.0 A_0)))
 (let (($x268790 (or $x1456 $x4314 $x17449 (<= (+ ?x1437 ?x2268 ?x14314 ?x792 ?x5236 ?x1771 ?x2267) 0.0) (<= 0.0 ?x5163))))
 (let (($x101092 (<= (+ A_2 ?x810 (* (- 1.0) S_4)) (- 5.0))))
 (let (($x1461 (<= (+ Q_4 ?x1003 S_0 L_1) 0.0)))
 (let (($x118997 (or $x689 $x1461 (<= (+ Q_4 ?x813 L_2 S_3 A_0 ?x792 L_1 ?x804) 0.0))))
 (let (($x8166 (<= (+ (* (/ 2.0 3.0) A_0) ?x7873 ?x7967 L_1 ?x804) 0.0)))
 (let (($x3765 (<= (+ ?x1536 ?x1360 ?x1471 ?x804 S_3 (* 2.0 S_0) ?x1772 ?x1477) 0.0)))
 (let (($x268376 (or $x689 $x1461 (<= (+ Q_4 ?x822 S_4 A_0 ?x792 L_1 L_2 ?x804) 0.0))))
 (let (($x5162 (<= (+ ?x759 A_4 ?x1607 (* (- 3.0) L_0) ?x810 ?x1731 (* (- 4.0) A_1)) 0.0)))
 (let (($x3309 (<= (+ ?x801 ?x759 A_4 A_1 (* (- 2.0) S_3) ?x810 A_2 ?x822) 0.0)))
 (let (($x267918 (or $x1442 $x2997 $x3309 $x5162 (<= (+ ?x759 A_4 ?x1730 ?x1615 ?x1536 ?x810 ?x1773 A_2 ?x822) 0.0))))
 (let (($x266804 (or $x1456 $x1803 $x2514 (<= (+ ?x759 A_4 ?x822 ?x1484 A_1 ?x1454 L_2 A_0 ?x813) 0.0))))
 (let (($x275293 (or $x689 $x1461 (<= (+ ?x1360 ?x813 L_2 S_4 ?x1730 ?x1615 ?x1491 ?x1492) 0.0))))
 (let (($x3808 (<= (+ ?x1536 Q_4 ?x854 ?x804 (* 2.0 S_0) ?x810 ?x1772 A_2 A_3) 0.0)))
 (let (($x266933 (or $x689 $x1573 $x3808 (<= (+ ?x759 A_4 ?x1730 ?x792 (* (- 1.0) S_0) ?x804 ?x822) 0.0) $x98309)))
 (let (($x15557 (<= (+ Q_4 ?x854 A_2 ?x810 ?x1772 ?x1462 (* 2.0 S_1) L_1) 0.0)))
 (let (($x5042 (<= (+ Q_4 ?x854 ?x1472 ?x1473 (* 4.0 S_1) L_2) 0.0)))
 (let (($x2491 (<= (+ Q_4 ?x854 A_3 ?x1003 L_0 S_1) 0.0)))
 (let (($x98269 (<= (+ A_0 ?x792 L_1 ?x804) (- 5.0))))
 (let ((?x5217 (* 4.0 A_2)))
 (let ((?x1745 (* (- 4.0) A_1)))
 (let (($x19371 (<= (+ Q_4 ?x854 ?x1472 L_0 (* 2.0 S_0) ?x810 ?x1491 ?x1464) 0.0)))
 (let (($x2493 (<= (+ ?x1360 ?x1471 ?x1477 ?x1772 L_0 S_0 ?x810 L_1 A_2) 0.0)))
 (let (($x130985 (or $x689 $x1573 $x2493 $x19371 (<= (+ Q_4 ?x854 A_0 ?x792 ?x1399 ?x1731 ?x1745 ?x5217) 0.0) $x98309)))
 (let (($x4174 (<= (+ L_1 Q_4 ?x854 ?x804 (* 2.0 S_2) L_2 ?x813 A_3) 0.0)))
 (let (($x97919 (<= (+ Q_4 ?x854 A_0 ?x792 L_2 ?x813 A_3) (- 15.0))))
 (let (($x268926 (or $x1573 $x1803 (<= (+ ?x801 Q_4 ?x854 A_1 L_2 ?x813 A_3) (- 10.0)) $x97919)))
 (let (($x90678 (<= 0.0 (+ ?x1484 ?x759 A_4 ?x1474 ?x1426 ?x1446))))
 (let (($x3040 (<= (+ (* 5.0 L_1) Q_4 ?x854 ?x1492 ?x2778 ?x1463 ?x1472 ?x1367) 0.0)))
 (let (($x2198 (<= (+ Q_4 ?x854 A_3 ?x1491 ?x804 S_0 ?x810 ?x1003 A_2) 0.0)))
 (let (($x7579 (<= (+ ?x759 A_4 ?x1003 L_0 ?x1771 ?x1426 ?x1530 ?x1327 ?x822) 0.0)))
 (let (($x5156 (<= (+ ?x759 A_4 ?x1003 L_0 ?x1445 ?x1787 ?x1788 (* (- 4.0) A_2)) 0.0)))
 (let (($x1738 (<= (+ (* 4.0 Q_4) ?x1607 (* (- 3.0) L_0) S_4 ?x1731 ?x1745) 0.0)))
 (let (($x99530 (<= (+ Q_4 ?x854 A_2 ?x810 L_1) (- 10.0))))
 (let (($x97401 (<= (+ Q_4 ?x854 A_0 ?x792 L_2) (- 20.0))))
 (let (($x625 (<= (+ Q_4 ?x854 A_3) (- 5.0))))
 (let ((?x2204 (* 4.0 A_3)))
 (let ((?x5143 (* (- 4.0) A_2)))
 (let ((?x7556 (* 4.0 L_2)))
 (let ((?x7558 (* 3.0 S_4)))
 (let ((?x7557 (* (- 4.0) A_4)))
 (let ((?x1747 (* 4.0 Q_4)))
 (let (($x265606 (or $x1573 $x1803 (<= (+ ?x801 ?x1443 ?x2203 A_1 ?x1646 ?x1445 ?x1446 ?x2207) 0.0) (<= (+ ?x1747 ?x7557 A_0 ?x792 ?x7558 ?x7556 ?x5143 ?x2204) 0.0))))
 (let (($x273324 (or $x2476 $x18415 (<= (+ ?x1772 ?x1462 (* (- 1.0) S_4) (* 3.0 S_1)) 0.0))))
 (let (($x7523 (<= (+ ?x759 A_4 ?x1730 ?x1615 (* (- 3.0) S_2) ?x810 A_2 ?x822) 0.0)))
 (let (($x1451 (<= (+ ?x759 A_0 ?x792 ?x1449 ?x810 A_2) 0.0)))
 (let (($x123743 (or $x1803 (<= (+ ?x1484 A_1 ?x1454 L_2 A_0 ?x813) (- 5.0)) (<= (+ ?x1730 ?x792 ?x1454 ?x801 L_2 ?x813) (- 10.0)))))
 (let (($x4209 (<= (+ ?x759 A_4 (* (- 1.0) S_4) ?x810 A_2 ?x822) 0.0)))
 (let (($x276319 (or $x2476 $x3039 $x4209 $x5162 (<= (+ L_1 ?x1740 ?x804 (* (- 1.0) S_4) ?x1463 ?x1464) 0.0))))
 (let (($x265816 (or (<= (+ ?x1437 ?x1003 L_0 ?x1364 ?x1399 ?x1367) 0.0) $x2476 $x4209 $x4626 $x4808)))
 (let (($x5646 (<= (+ ?x1484 Q_4 ?x1474 L_0 L_2 ?x1003 ?x813) 0.0)))
 (let (($x7512 (<= (+ ?x1360 ?x1471 ?x1003 L_0 (* 3.0 S_2) ?x1426 ?x1327 ?x1477) 0.0)))
 (let (($x122636 (or $x1803 (<= (+ Q_4 ?x822 S_4 ?x801 A_1 ?x1426 ?x813) 0.0) (<= (+ Q_4 ?x1496 ?x1646 A_0 ?x792 ?x1445 ?x813) 0.0))))
 (let (($x120618 (or $x689 $x1573 (<= (+ ?x1360 ?x1471 ?x15526 L_0 ?x2778 ?x1536 ?x810 A_2 ?x1477) 0.0) (<= (+ Q_4 ?x854 A_0 ?x792 ?x1536 ?x1463 ?x1773 ?x1464 A_3) 0.0))))
 (let (($x7513 (<= (+ Q_4 ?x854 ?x1772 ?x1462 (* 3.0 S_1) L_2 ?x813 A_3) 0.0)))
 (let (($x101224 (or (<= (+ Q_4 ?x1003 L_0 (* 2.0 S_1) L_2 ?x813) 0.0) $x1803)))
 (let (($x123598 (or $x1573 (<= (+ Q_4 ?x854 ?x8016 ?x8108 (* (/ 4.0 3.0) S_3) L_2) 0.0))))
 (let (($x270148 (or $x1573 (<= (+ L_1 ?x1360 ?x1471 ?x804 (* 3.0 S_3) ?x1426) 0.0))))
 (let (($x127964 (or $x2476 (<= (+ ?x16069 ?x16070 (* (- 1.0) S_4) (* (/ 3.0 2.0) S_2)) 0.0))))
 (let (($x274573 (or $x1456 $x1803 (<= (+ ?x1740 ?x1600 ?x1496 ?x1730 ?x792 ?x1454 L_2 ?x801 ?x813) 0.0) (not $x2514))))
 (let (($x119722 (or (<= (+ Q_4 ?x854 ?x1003 L_0 (* 2.0 S_2) L_2) 0.0) $x1573 (<= (+ ?x1360 ?x1471 ?x1477 ?x1003 L_0 S_2) 0.0))))
 (let (($x279738 (or (<= (+ ?x1360 A_0 ?x792 S_4 ?x1426 ?x1327) 0.0) $x1803 (<= (+ ?x1484 ?x1443 ?x1474 S_4 ?x1445 ?x1446) 0.0))))
 (let (($x278831 (or $x1573 (<= (+ (* (/ 3.0 2.0) L_1) Q_4 ?x854 ?x4567 (* (/ 3.0 2.0) S_3)) 0.0))))
 (let (($x16614 (or $x2163 (<= (+ (* (/ 3.0 4.0) A_0) (* (- (/ 3.0 4.0)) L_0) ?x16066 ?x1630) 0.0))))
 (let (($x98007 (or $x625 $x1573 $x90678 (<= (+ ?x801 Q_4 ?x854 A_1 L_2) (- 15.0)) $x97401)))
 (let (($x119971 (or $x1573 $x2182 (<= (+ ?x1491 Q_4 ?x854 ?x1492 (* 3.0 S_2) L_2) 0.0))))
 (let (($x41 (>= A_1 A_0)))
 (let (($x42 (>= A_2 A_1)))
 (let (($x43 (>= A_3 A_2)))
 (let (($x44 (>= A_4 A_3)))
 (and (<= ?x801 ?x792) $x44 $x43 $x42 $x41 (or (= ?x810 ?x801) (<= (+ Q_4 S_2 L_2 ?x813) 0.0)) (<= ?x810 ?x801) $x119971 $x98007 (or $x2163 (<= (+ A_0 ?x792 ?x1630) (- 5.0))) (or $x689 $x1461 (<= (+ Q_4 S_1 L_1 ?x804) 0.0)) (or $x2163 (<= (+ (* (/ 2.0 3.0) A_0) ?x7873 ?x7967 ?x1630) 0.0)) (or $x3319 $x9944 (<= (+ A_0 ?x792 ?x1440) (- 10.0))) $x16614 (or $x689 $x1461 (<= (+ ?x1360 A_0 ?x792 S_2 ?x1491 ?x1492) 0.0)) $x278831 (or (<= (+ ?x1484 ?x1474 S_4 ?x2775) 0.0) $x9944 $x16098) (or $x579 $x689 $x1100 $x2129) $x279738 (or $x3319 $x9944 (<= (+ ?x16042 ?x16027 ?x4503 ?x1440) 0.0)) (or $x1573 $x2491 $x5042 $x90678) $x119722 (or $x1803 (<= (+ A_0 S_2 ?x1454 L_2 ?x801 ?x813) 0.0)) $x274573 (or $x689 $x1461 $x1811) (or $x2163 (<= (+ ?x813 L_2 S_3 A_0 ?x1630 ?x792) 0.0)) $x127964 (or $x1442 $x2103 $x2514) (or $x9944 (<= (+ ?x16069 ?x11384 ?x16070 S_1) 0.0)) (or $x1803 $x98269 (<= (+ ?x801 Q_4 A_1 L_2 ?x813) (- 5.0))) $x270148 $x123598 (or $x2163 (<= (+ ?x822 S_4 A_0 ?x792 ?x1630 L_1) 0.0)) $x101224 (or $x1573 $x1803 $x7513) (or $x1777 $x4314 $x20231) (or $x1100 $x1803 (not (<= (+ ?x4501 ?x759 ?x4567 ?x11384 ?x810 A_2) 0.0))) (or $x1777 (<= (+ ?x759 A_4 ?x822 A_0 ?x792 ?x1630) 0.0)) (or $x1451 $x2163 (<= (+ ?x759 A_4 ?x822 A_0 ?x792 ?x1630) 0.0)) (or $x1456 $x2163 (<= (+ ?x759 A_4 ?x822 A_0 ?x792 ?x1630) 0.0)) (or $x9944 (<= (+ ?x801 A_1 ?x1440) (- 5.0)) $x98269) $x120618 $x122636 (or $x2163 (<= (+ ?x813 L_2 S_4 ?x1730 ?x1449 ?x1615) 0.0)) (or $x1803 (<= (+ ?x801 ?x1360 A_1 S_3 ?x1426 ?x1327) 0.0) $x8166) (or (<= (+ Q_4 A_0 ?x792 L_2 ?x813) (- 10.0)) $x1803 $x5646) (or $x1573 $x1803 $x7512) (or $x625 $x1573 $x5162 (<= (+ Q_4 ?x854 A_1) (- 15.0)) $x99530) (or (<= (+ ?x759 ?x1003 L_0 ?x810 ?x1474 ?x813) 0.0) $x1803 $x2218) (or $x1803 (<= (+ ?x1003 L_0 S_1 L_2 ?x801 A_1 ?x813) 0.0)) (or $x1486 $x1803 $x2218) (or (<= (+ ?x1443 A_0 ?x792 ?x1444 ?x1445 ?x1446) 0.0) $x1803 $x5646) $x265816 $x276319 (or (<= (+ ?x759 ?x1003 L_0 ?x810 ?x1474 ?x813) 0.0) $x1803 $x5156 $x7579) (or $x1456 $x2103 $x2514 $x9944) $x123743 (or $x2476 $x4626 $x18415 (<= (+ A_0 ?x792 (* (- 1.0) S_4)) (- 15.0))) (or $x1451 $x2163 $x4314 $x7523) $x273324 $x265606 (or $x625 $x1573 $x24382 $x97401 $x99530) (or $x1573 $x1803 $x24382 $x97919) (or $x689 $x1461 $x1738) (or $x689 $x1573 $x1811 $x2493 $x19371) (or (<= (+ ?x1740 ?x1600 ?x1496 A_0 ?x1440 ?x792) 0.0) $x9944 $x16447) (or $x1573 $x1803 (<= (+ Q_4 ?x854 S_3 L_2 ?x813 A_3) 0.0)) (or $x2476 (<= (+ ?x4501 ?x4567 ?x4118 S_2) 0.0)) (or $x1486 $x1803 $x5156 $x7579) (or $x689 $x1811 $x23905) (or $x689 $x1573 $x1811 $x2198 $x19371) (or $x689 $x1573 $x2198 $x3009 $x3040 $x90678) $x268926 (or $x1573 $x1803 $x4174) $x130985 (or $x2476 (<= (+ (* (- (/ 1.0 2.0)) L_1) ?x4456 ?x4118) (- 5.0)) $x98269 $x101092) (or $x1573 $x2491 $x5042 $x15557) $x266933 $x275293 (or $x1456 (<= (+ ?x1740 ?x1600 ?x1496 A_0 ?x1440 ?x792) 0.0) $x3319 $x9944) $x266804 $x267918 (or $x1803 (not (<= 0.0 (+ S_2 L_2 ?x813)))) (or $x689 $x1461 (<= (+ ?x1443 ?x1730 ?x1615 S_3 ?x1536 ?x1773) 0.0)) $x268376 (or $x689 $x1573 $x3765 $x8166) (or $x689 $x1573 $x1811 $x10908) (or $x689 (<= (+ Q_4 A_0 ?x792 L_1 ?x804) (- 5.0)) $x1461) $x118997 (or $x2476 $x4626 $x101092 (<= (+ A_0 ?x792 L_2 ?x813) (- 10.0))) $x268790 (or $x1456 $x2163 $x4314 $x22836) (or $x689 $x23905 (<= (+ A_0 ?x1440 ?x792 ?x1463 ?x1491 ?x1492 ?x1464) 0.0)) (or $x1456 $x2476 $x4626 $x4808 $x18415 $x22773) (or $x689 $x1573 $x2182 $x18440) (or $x689 $x1573 $x1811 $x96266) (or $x1100 $x1803 $x2514 $x98310) $x74778 (or $x1803 $x71394) (or $x1803 (<= (+ ?x1003 L_0 S_2 ?x1426 ?x1484 ?x1474 ?x1327) 0.0)) (or $x689 $x1573 $x1811 $x8140) $x268407 (or $x1573 (<= (+ Q_4 ?x854 ?x813 L_2 ?x1444 L_1) 0.0)) (or $x1777 $x2218 $x15534 $x20231) $x113128 (or $x1100 $x1803 (<= (+ ?x801 Q_4 A_1 L_2 ?x813) (- 5.0))) (or $x1456 $x2476 $x5164 $x15510 $x17449 $x22773 $x35121) (or $x1811 $x2476 $x4871 $x56851) (or $x1456 $x2163 $x4314 $x21612) $x272618 (or $x1456 (not $x1803) $x2163 $x15534 $x21612) (or $x1456 $x2476 $x3039 $x4620 $x5164 $x15510 $x22836 $x35121) (or $x689 $x1573 $x19628 $x20251) (or $x689 $x1573 $x10908 $x42694) (or $x689 $x1573 $x10908 $x20209) (or $x689 $x1573 $x8140 $x20209) (or $x1100 $x1339 $x1803 (not (<= 0.0 (+ S_1 L_1 ?x804)))) $x279602 (or $x579 $x689 $x42725) (or $x689 $x1573 $x1811 $x18936) $x124453 (or $x1803 (<= (+ ?x801 A_1 S_4 ?x854 ?x1426 ?x1327 A_3) 0.0)) $x278373 $x121332 $x273568 (or $x2476 $x4871 $x53286 $x56851) (or $x689 $x1573 $x19628 $x42725) (or $x2103 $x5115 $x9944 $x16447) $x271530 $x277022 $x276693 (or $x689 $x1573 $x18936 $x20251) (or $x1803 $x3319 $x71005) $x274658 $x269502 $x277923 (or $x1100 $x1339 $x1803 $x2129) (or $x1442 (<= (+ ?x1740 ?x1600 ?x1496 A_0 ?x1440 ?x792) 0.0) $x3319) (or $x1442 $x3319 $x5115 $x7530) $x117718 $x277248 $x119974 (or $x1100 $x2476 $x2514 $x98310 $x104115) (or $x1100 $x2129 $x2476 $x24382 $x104115) $x127692 $x265580 $x115902 $x270798 $x116038 $x126537 (or $x579 $x689 (not (<= 0.0 (+ S_1 L_1 ?x804)))) (or $x579 $x689 $x1100 (not $x1486)) $x119953 $x277849 (or $x1456 $x2476 $x3039 $x4620 $x4808 $x18415 $x22836) $x1495 (<= (+ ?x1003 L_0 S_0) 0.0) (<= (+ ?x1454 S_0) 0.0) (<= (+ ?x1440 S_2) 0.0) (<= (+ Q_4 ?x854 S_4 L_2) 0.0) (<= (+ L_1 ?x804 S_1) 0.0) (<= (+ (* (- 1.0) S_4) S_3) 0.0) (<= (+ ?x822 S_3 L_2) 0.0) (<= (+ ?x813 L_2 S_2) 0.0) (<= (+ ?x1630 S_1) 0.0)))))))))))))))))))))))))))))))))))))))))))))))))))))))))))))))))))))))))))))))))))))))))))))))))))))))))))))))))))))))))))))))))))))))))))))))))))))))))))))))))))))))))))))))))))))))))))))))))))))))))))))))))))))))))))))))))))))))))))))))))))))))))))))))))))))))))))
(check-sat)
